nP = 2;
nT = 5;
nC1 = 7;
nC2 = 11;
nA = 36;
nD = 3;

arc_from = [1, 1, 2, 1, 2, 2, 1, 1, 2, 3, 4, 4, 5, 5, 5, 6, 7, 13, 9, 14, 10, 8, 14, 9, 14, 8, 11, 10, 8, 8, 9, 10, 12, 13, 14, 14];
arc_to = [3, 4, 4, 5, 5, 6, 6, 7, 7, 12, 14, 13, 14, 10, 12, 13, 8, 15, 16, 17, 18, 19, 20, 21, 22, 23, 24, 25, 25, 20, 20, 19, 23, 17, 21, 19];

supply = [341.41, 341.41, 0.00, 0.00, 0.00, 0.00, 0.00, 0.00, 0.00, 0.00, 0.00, 0.00, 0.00, 0.00, 0.00, 0.00, 0.00, 0.00, 0.00, 0.00, 0.00, 0.00, 0.00, 0.00, 0.00];
demand = [0.00, 0.00, 0.00, 0.00, 0.00, 0.00, 0.00, 27.03, 26.44, 28.57, 20.62, 23.93, 20.05, 21.92, 26.88, 29.17, 35.15, 33.76, 29.45, 34.34, 37.27, 26.61, 37.22, 35.79, 31.04];

max_capacity = [795, 1414, 3181];

install_cost = array2d(1..nA, 1..nD, [
  20, 24, 32,
  50, 62, 78,
  20, 24, 32,
  50, 62, 78,
  20, 24, 32,
  50, 62, 78,
  20, 24, 32,
  50, 62, 78,
  20, 24, 32,
  50, 62, 78,
  20, 24, 32,
  50, 62, 78,
  20, 24, 32,
  50, 62, 78,
  20, 24, 32,
  50, 62, 78,
  20, 24, 32,
  50, 62, 78,
  20, 24, 32,
  50, 62, 78,
  20, 24, 32,
  50, 62, 78,
  20, 24, 32,
  50, 62, 78,
  20, 24, 32,
  50, 62, 78,
  20, 24, 32,
  50, 62, 78,
  20, 24, 32,
  50, 62, 78,
  20, 24, 32,
  50, 62, 78,
  20, 24, 32,
  50, 62, 78,
  20, 24, 32,
  50, 62, 78
]);

trans_cost = [6.75, 5.79, 6.97, 8.28, 5.65, 5.65, 8.37, 7.15, 5.30, 6.81, 5.30, 5.30, 6.36, 3.13, 3.41, 5.16, 4.48, 6.47, 4.64, 3.88, 8.20, 5.66, 6.10, 3.86, 5.18, 6.17, 4.27, 6.56, 5.10, 5.56, 5.10, 8.78, 5.98, 4.41, 7.23, 4.17];

% Metadata: {'tamaño': 'pequeñas', 'numero': 1, 'grupo': 5, 'demanda_total': 525.24, 'suministro_total': 682.82, 'factor_holgura': 1.3, 'num_arcos': 36, 'conectividad': {'plantas_tanques': 9, 'tanques_transbordo': 8, 'transbordo_finales': 19}}
% Total supply: 682.82
% Total demand: 525.24
% Balance factor: 1.30
